c A SAT instance generated from a 3-CNF formula that had 70 clauses and 10 variables
p cnf 10 70
9 10 -8 0
-10 7 -3 0
2 -8 5 0
-1 -7 8 0
-3 -10 5 0
5 -9 2 0
10 7 -3 0
-9 4 -5 0
-2 -4 -3 0
-4 -2 10 0
-1 7 -9 0
-5 -6 -10 0
-5 10 -9 0
-7 4 -5 0
-2 9 -7 0
1 10 -8 0
2 5 4 0
-6 5 -2 0
-4 7 -8 0
10 -6 5 0
10 3 -2 0
-9 8 -4 0
-10 4 -9 0
1 -5 6 0
-7 1 8 0
-6 5 7 0
-3 6 -4 0
-1 7 -9 0
-5 8 -4 0
5 -1 3 0
6 1 4 0
-10 -8 -1 0
-9 4 -8 0
-3 8 -5 0
3 7 -4 0
-7 8 4 0
9 -5 4 0
-7 -10 -1 0
6 1 8 0
9 3 5 0
-2 -8 -10 0
-8 10 -6 0
2 -7 6 0
8 -1 -4 0
-4 8 10 0
1 -4 5 0
-8 -9 3 0
-2 8 -10 0
-7 -2 4 0
-7 4 -2 0
-10 -3 8 0
-6 9 8 0
3 -1 -4 0
-3 5 -6 0
9 2 8 0
7 -9 -5 0
6 9 -1 0
-3 -10 9 0
-5 -7 -9 0
8 1 -4 0
-1 -3 -8 0
5 -4 9 0
-6 -5 -3 0
-2 6 -8 0
7 -3 5 0
4 -10 1 0
3 5 -10 0
-6 1 3 0
-8 -2 -7 0
10 3 4 0
%
0

42 67 98 66 68 11 47 77 60 41
